c 61_3_checker_5cl.cnf
c
c field = 61
c formula set type = 3_checker_5cl
c
p cnf 5 6
122 
124 
126 
-129 
-130 
123 
125 
127 
-128 
-131 
30 
60 
90 
-1 
-150 
31 
61 
91 
-0 
-151 
152 
184 
216 
-249 
-280 
153 
185 
217 
-248 
-281 
